46
raw_data/mm-rcpsp/MMLIB50/J5010_1.mm
Time limit set to 60 seconds
Running CP solver
/home/omastto1/General-Optimization-Solver/src/solvers/mmrcpsp.py:42(stream:276:6): Warning: Cumulative expression 'pulse': height is zero, expression is zero everywhere.
                                                                                               VarCumulAtom_419 = pulse(task_0_mode_0, 0)
/home/omastto1/General-Optimization-Solver/src/solvers/mmrcpsp.py:42(stream:276:3912): Warning: Cumulative expression 'pulse': height is zero, expression is zero everywhere.
                                                                                                  VarCumulAtom_570 = pulse(task_51_mode_0, 0)
/home/omastto1/General-Optimization-Solver/src/solvers/mmrcpsp.py:42(stream:277:6): Warning: Cumulative expression 'pulse': height is zero, expression is zero everywhere.
                                                                                               VarCumulAtom_574 = pulse(task_0_mode_0, 0)
/home/omastto1/General-Optimization-Solver/src/solvers/mmrcpsp.py:42(stream:277:3913): Warning: Cumulative expression 'pulse': height is zero, expression is zero everywhere.
                                                                                                  VarCumulAtom_725 = pulse(task_51_mode_0, 0)
 ! --------------------------------------------------- CP Optimizer 20.1.0.0 --
 ! Minimization problem - 205 variables, 286 constraints
 ! TimeLimit            = 60
 ! Workers              = 14
 ! LogVerbosity         = Terse
 ! Initial process time : 0.00s (0.00s extraction + 0.00s propagation)
 !  . Log search space  : 520.8 (before), 520.8 (after)
 !  . Memory usage      : 1.3 MB (before), 1.3 MB (after)
 ! Using parallel search with 14 workers.
 ! ----------------------------------------------------------------------------
 !          Best Branches  Non-fixed    W       Branch decision
                        0        205                 -
 + New bound is 17
 ! Using iterative diving.
 ! Using temporal relaxation.
 *            42      109  0.88s        1      (gap is 59.52%)
 *            38      314  0.88s        1      (gap is 55.26%)
 *            37      546  0.88s        1      (gap is 54.05%)
 *            36      973  0.88s        1      (gap is 52.78%)
 *            35     1172  0.88s        1      (gap is 51.43%)
 *            34     1101  0.88s        4      (gap is 50.00%)
 *            33     3201  1.59s        5      (gap is 48.48%)
 *            32     3618  1.59s        9      (gap is 46.88%)
              32     7156         52   10   F        -
 + New bound is 18 (gap is 43.75%)
 *            31     9603  3.01s        7      (gap is 41.94%)
 *            30    15943  4.45s       10      (gap is 40.00%)
 *            29    36536  8.12s        4      (gap is 37.93%)
 ! Using failure-directed search.
 *            28     185k  15.25s      14      (gap is 35.71%)
 ! ----------------------------------------------------------------------------
 ! Search terminated by limit, 12 solutions found.
 ! Best objective         : 28 (gap is 35.71%)
 ! Best bound             : 18
 ! ----------------------------------------------------------------------------
 ! Number of branches     : 5336132
 ! Number of fails        : 1024605
 ! Total memory usage     : 20.0 MB (19.8 MB CP Optimizer + 0.2 MB Concert)
 ! Time spent in solve    : 60.08s (60.08s engine + 0.00s extraction)
 ! Search speed (br. / s) : 88831.9
 ! ----------------------------------------------------------------------------
task_0: (start=0, end=0, size=0, length=0)
Task 0 is scheduled in mode 0 from 0 to 0
task_1: (start=2, end=6, size=4, length=4)
Task 1 is scheduled in mode 0 from 2 to 6
task_2: (start=0, end=8, size=8, length=8)
Task 2 is scheduled in mode 2 from 0 to 8
task_3: (start=9, end=11, size=2, length=2)
Task 3 is scheduled in mode 1 from 9 to 11
task_4: (start=0, end=2, size=2, length=2)
Task 4 is scheduled in mode 1 from 0 to 2
task_5: (start=0, end=6, size=6, length=6)
Task 5 is scheduled in mode 1 from 0 to 6
task_6: (start=0, end=2, size=2, length=2)
Task 6 is scheduled in mode 0 from 0 to 2
task_7: (start=2, end=5, size=3, length=3)
Task 7 is scheduled in mode 1 from 2 to 5
task_8: (start=8, end=9, size=1, length=1)
Task 8 is scheduled in mode 0 from 8 to 9
task_9: (start=11, end=14, size=3, length=3)
Task 9 is scheduled in mode 0 from 11 to 14
task_10: (start=6, end=8, size=2, length=2)
Task 10 is scheduled in mode 0 from 6 to 8
task_11: (start=9, end=10, size=1, length=1)
Task 11 is scheduled in mode 0 from 9 to 10
task_12: (start=0, end=2, size=2, length=2)
Task 12 is scheduled in mode 1 from 0 to 2
task_13: (start=0, end=3, size=3, length=3)
Task 13 is scheduled in mode 1 from 0 to 3
task_14: (start=7, end=12, size=5, length=5)
Task 14 is scheduled in mode 0 from 7 to 12
task_15: (start=10, end=12, size=2, length=2)
Task 15 is scheduled in mode 0 from 10 to 12
task_16: (start=2, end=3, size=1, length=1)
Task 16 is scheduled in mode 0 from 2 to 3
task_17: (start=3, end=7, size=4, length=4)
Task 17 is scheduled in mode 2 from 3 to 7
task_18: (start=7, end=12, size=5, length=5)
Task 18 is scheduled in mode 2 from 7 to 12
task_19: (start=12, end=15, size=3, length=3)
Task 19 is scheduled in mode 0 from 12 to 15
task_20: (start=3, end=9, size=6, length=6)
Task 20 is scheduled in mode 0 from 3 to 9
task_21: (start=8, end=11, size=3, length=3)
Task 21 is scheduled in mode 1 from 8 to 11
task_22: (start=6, end=7, size=1, length=1)
Task 22 is scheduled in mode 0 from 6 to 7
task_23: (start=11, end=18, size=7, length=7)
Task 23 is scheduled in mode 2 from 11 to 18
task_24: (start=0, end=8, size=8, length=8)
Task 24 is scheduled in mode 2 from 0 to 8
task_25: (start=14, end=18, size=4, length=4)
Task 25 is scheduled in mode 1 from 14 to 18
task_26: (start=5, end=6, size=1, length=1)
Task 26 is scheduled in mode 0 from 5 to 6
task_27: (start=14, end=15, size=1, length=1)
Task 27 is scheduled in mode 0 from 14 to 15
task_28: (start=12, end=14, size=2, length=2)
Task 28 is scheduled in mode 0 from 12 to 14
task_29: (start=7, end=14, size=7, length=7)
Task 29 is scheduled in mode 2 from 7 to 14
task_30: (start=14, end=18, size=4, length=4)
Task 30 is scheduled in mode 0 from 14 to 18
task_31: (start=14, end=22, size=8, length=8)
Task 31 is scheduled in mode 2 from 14 to 22
task_32: (start=13, end=21, size=8, length=8)
Task 32 is scheduled in mode 2 from 13 to 21
task_33: (start=10, end=18, size=8, length=8)
Task 33 is scheduled in mode 2 from 10 to 18
task_34: (start=6, end=13, size=7, length=7)
Task 34 is scheduled in mode 2 from 6 to 13
task_35: (start=23, end=26, size=3, length=3)
Task 35 is scheduled in mode 1 from 23 to 26
task_36: (start=21, end=22, size=1, length=1)
Task 36 is scheduled in mode 0 from 21 to 22
task_37: (start=22, end=28, size=6, length=6)
Task 37 is scheduled in mode 2 from 22 to 28
task_38: (start=21, end=28, size=7, length=7)
Task 38 is scheduled in mode 0 from 21 to 28
task_39: (start=18, end=21, size=3, length=3)
Task 39 is scheduled in mode 0 from 18 to 21
task_40: (start=18, end=26, size=8, length=8)
Task 40 is scheduled in mode 2 from 18 to 26
task_41: (start=22, end=28, size=6, length=6)
Task 41 is scheduled in mode 1 from 22 to 28
task_42: (start=18, end=27, size=9, length=9)
Task 42 is scheduled in mode 2 from 18 to 27
task_43: (start=21, end=26, size=5, length=5)
Task 43 is scheduled in mode 1 from 21 to 26
task_44: (start=22, end=27, size=5, length=5)
Task 44 is scheduled in mode 1 from 22 to 27
task_45: (start=15, end=17, size=2, length=2)
Task 45 is scheduled in mode 1 from 15 to 17
task_46: (start=18, end=28, size=10, length=10)
Task 46 is scheduled in mode 2 from 18 to 28
task_47: (start=15, end=23, size=8, length=8)
Task 47 is scheduled in mode 1 from 15 to 23
task_48: (start=17, end=18, size=1, length=1)
Task 48 is scheduled in mode 0 from 17 to 18
task_49: (start=12, end=22, size=10, length=10)
Task 49 is scheduled in mode 2 from 12 to 22
task_50: (start=18, end=21, size=3, length=3)
Task 50 is scheduled in mode 0 from 18 to 21
task_51: (start=28, end=28, size=0, length=0)
Task 51 is scheduled in mode 0 from 28 to 28
Feasible solution found
Objective value: 28
Solution is 55.6 % worse than the lower bound.
